p tw 70 105
1 2
1 37
1 67
2 13
2 49
13 24
13 56
24 35
24 9
35 46
35 19
46 57
46 44
57 68
57 28
68 69
68 36
69 70
69 63
70 3
70 16
3 4
3 23
4 5
4 58
5 6
5 45
6 7
6 38
7 8
7 52
8 9
8 64
9 10
10 11
10 25
11 12
11 34
12 14
12 60
14 15
14 43
15 16
15 51
16 17
17 18
17 31
18 19
18 39
19 20
20 21
20 61
21 22
21 53
22 23
22 67
23 25
25 26
26 27
26 40
27 28
27 50
28 29
29 30
29 59
30 31
30 66
31 32
32 33
32 47
33 34
33 54
34 36
36 37
37 38
38 39
39 40
40 41
41 42
41 55
42 43
42 65
43 44
44 45
45 47
47 48
48 49
48 62
49 50
50 51
51 52
52 53
53 54
54 55
55 56
56 58
58 59
59 60
60 61
61 62
62 63
63 64
64 65
65 66
66 67
